64
150
120	1
119	1
117	1
114	2
113	1
112	1
111	1
110	1
108	1
107	1
106	2
104	3
103	1
102	1
101	1
100	2
99	2
97	1
95	1
94	4
91	3
90	2
88	3
86	2
85	1
84	1
83	2
81	1
79	1
76	3
74	1
73	2
72	1
71	1
70	1
68	1
67	1
66	4
65	2
63	2
62	2
61	1
60	3
59	1
58	1
57	2
56	1
55	4
54	1
53	2
51	1
50	1
48	1
47	1
44	1
43	2
42	1
41	1
40	1
39	1
38	1
35	2
34	3
30	1
